
;this file is automatically generated: Fri Oct 30 17:03:59 CST 2020

;declarations generated

(declare-fun oclExcludes ( Int Int) Bool)
(declare-fun Cardinality ( Int) Int)
(declare-fun obj_5806dec9_c153_4560_8aa0_275d869421cf ( Int) Int)
(declare-fun class14_Class14IntAttr4 ( Int) Int)
(declare-fun type_3be299ca_2571_4fe5_8b1b_654e7067e9ea_Class52 ( Int) Bool)
(declare-fun type_3be299ca_2571_4fe5_8b1b_654e7067e9ea_Class51 ( Int) Bool)
(declare-fun type_3be299ca_2571_4fe5_8b1b_654e7067e9ea_Class54 ( Int) Bool)
(declare-fun type_3be299ca_2571_4fe5_8b1b_654e7067e9ea_Class53 ( Int) Bool)
(declare-fun type_3be299ca_2571_4fe5_8b1b_654e7067e9ea_Class55 ( Int) Bool)
(declare-fun type_3be299ca_2571_4fe5_8b1b_654e7067e9ea_Class50 ( Int) Bool)
(declare-fun type_3be299ca_2571_4fe5_8b1b_654e7067e9ea_Class49 ( Int) Bool)
(declare-fun type_3be299ca_2571_4fe5_8b1b_654e7067e9ea_Class48 ( Int) Bool)
(declare-fun type_3be299ca_2571_4fe5_8b1b_654e7067e9ea_Class41 ( Int) Bool)
(declare-fun type_3be299ca_2571_4fe5_8b1b_654e7067e9ea_Class40 ( Int) Bool)
(declare-fun type_3be299ca_2571_4fe5_8b1b_654e7067e9ea_Class43 ( Int) Bool)
(declare-fun type_3be299ca_2571_4fe5_8b1b_654e7067e9ea_Class42 ( Int) Bool)
(declare-fun type_3be299ca_2571_4fe5_8b1b_654e7067e9ea_Class45 ( Int) Bool)
(declare-fun type_3be299ca_2571_4fe5_8b1b_654e7067e9ea_Class44 ( Int) Bool)
(declare-fun type_3be299ca_2571_4fe5_8b1b_654e7067e9ea_Class47 ( Int) Bool)
(declare-fun type_3be299ca_2571_4fe5_8b1b_654e7067e9ea_Class46 ( Int) Bool)
(declare-fun type_3be299ca_2571_4fe5_8b1b_654e7067e9ea_Class38 ( Int) Bool)
(declare-fun type_3be299ca_2571_4fe5_8b1b_654e7067e9ea_Class37 ( Int) Bool)
(declare-fun type_3be299ca_2571_4fe5_8b1b_654e7067e9ea_Class39 ( Int) Bool)
(declare-fun type_3be299ca_2571_4fe5_8b1b_654e7067e9ea_Class30 ( Int) Bool)
(declare-fun type_3be299ca_2571_4fe5_8b1b_654e7067e9ea_Class32 ( Int) Bool)
(declare-fun type_3be299ca_2571_4fe5_8b1b_654e7067e9ea_Class31 ( Int) Bool)
(declare-fun type_3be299ca_2571_4fe5_8b1b_654e7067e9ea_Class34 ( Int) Bool)
(declare-fun type_3be299ca_2571_4fe5_8b1b_654e7067e9ea_Class33 ( Int) Bool)
(declare-fun type_3be299ca_2571_4fe5_8b1b_654e7067e9ea_Class36 ( Int) Bool)
(declare-fun type_3be299ca_2571_4fe5_8b1b_654e7067e9ea_Class35 ( Int) Bool)
(declare-fun type_3be299ca_2571_4fe5_8b1b_654e7067e9ea_Class27 ( Int) Bool)
(declare-fun type_3be299ca_2571_4fe5_8b1b_654e7067e9ea_Class26 ( Int) Bool)
(declare-fun type_3be299ca_2571_4fe5_8b1b_654e7067e9ea_Class29 ( Int) Bool)
(declare-fun type_3be299ca_2571_4fe5_8b1b_654e7067e9ea_Class28 ( Int) Bool)
(declare-fun type_3be299ca_2571_4fe5_8b1b_654e7067e9ea_Class21 ( Int) Bool)
(declare-fun type_3be299ca_2571_4fe5_8b1b_654e7067e9ea_Class20 ( Int) Bool)
(declare-fun type_3be299ca_2571_4fe5_8b1b_654e7067e9ea_Class23 ( Int) Bool)
(declare-fun type_3be299ca_2571_4fe5_8b1b_654e7067e9ea_Class22 ( Int) Bool)
(declare-fun type_3be299ca_2571_4fe5_8b1b_654e7067e9ea_Class25 ( Int) Bool)
(declare-fun type_3be299ca_2571_4fe5_8b1b_654e7067e9ea_Class24 ( Int) Bool)
(declare-fun type_3be299ca_2571_4fe5_8b1b_654e7067e9ea_Class16 ( Int) Bool)
(declare-fun type_3be299ca_2571_4fe5_8b1b_654e7067e9ea_Class15 ( Int) Bool)
(declare-fun type_3be299ca_2571_4fe5_8b1b_654e7067e9ea_Class18 ( Int) Bool)
(declare-fun type_3be299ca_2571_4fe5_8b1b_654e7067e9ea_Class17 ( Int) Bool)
(declare-fun type_3be299ca_2571_4fe5_8b1b_654e7067e9ea_Class19 ( Int) Bool)
(declare-fun type_3be299ca_2571_4fe5_8b1b_654e7067e9ea_Class10 ( Int) Bool)
(declare-fun type_3be299ca_2571_4fe5_8b1b_654e7067e9ea_Class12 ( Int) Bool)
(declare-fun type_3be299ca_2571_4fe5_8b1b_654e7067e9ea_Class11 ( Int) Bool)
(declare-fun type_3be299ca_2571_4fe5_8b1b_654e7067e9ea_Class14 ( Int) Bool)
(declare-fun type_3be299ca_2571_4fe5_8b1b_654e7067e9ea_Class13 ( Int) Bool)
(declare-fun oclSelect ( Int Bool) Int)
(declare-fun type_3be299ca_2571_4fe5_8b1b_654e7067e9ea_Class0 ( Int) Bool)
(declare-fun type_3be299ca_2571_4fe5_8b1b_654e7067e9ea_Class1 ( Int) Bool)
(declare-fun type_3be299ca_2571_4fe5_8b1b_654e7067e9ea_Class2 ( Int) Bool)
(declare-fun type_3be299ca_2571_4fe5_8b1b_654e7067e9ea_Class3 ( Int) Bool)
(declare-fun type_3be299ca_2571_4fe5_8b1b_654e7067e9ea_Class4 ( Int) Bool)
(declare-fun type_3be299ca_2571_4fe5_8b1b_654e7067e9ea_Class5 ( Int) Bool)
(declare-fun type_3be299ca_2571_4fe5_8b1b_654e7067e9ea_Class6 ( Int) Bool)
(declare-fun type_3be299ca_2571_4fe5_8b1b_654e7067e9ea_Class7 ( Int) Bool)
(declare-fun type_3be299ca_2571_4fe5_8b1b_654e7067e9ea_Class8 ( Int) Bool)
(declare-fun type_3be299ca_2571_4fe5_8b1b_654e7067e9ea_Class9 ( Int) Bool)
(declare-fun Enum0 ( Int) Int)
(declare-fun Enum1 ( Int) Int)
(declare-fun Enum2 ( Int) Int)
(declare-fun container_ ( Int) Int)
(declare-fun oclIncludes ( Int Int) Bool)
(declare-fun ObjAt ( Int Int) Int)

;formula(s) generated
(assert (! (forall ((v Int)) (=> (and (and (and (and (and (and (and (and (and ( type_3be299ca_2571_4fe5_8b1b_654e7067e9ea_Class14 v )  ( type_3be299ca_2571_4fe5_8b1b_654e7067e9ea_Class45 v ) ) ( type_3be299ca_2571_4fe5_8b1b_654e7067e9ea_Class12 v ) ) ( type_3be299ca_2571_4fe5_8b1b_654e7067e9ea_Class55 v ) ) ( type_3be299ca_2571_4fe5_8b1b_654e7067e9ea_Class33 v ) ) ( type_3be299ca_2571_4fe5_8b1b_654e7067e9ea_Class22 v ) ) ( type_3be299ca_2571_4fe5_8b1b_654e7067e9ea_Class29 v ) ) ( type_3be299ca_2571_4fe5_8b1b_654e7067e9ea_Class39 v ) ) ( type_3be299ca_2571_4fe5_8b1b_654e7067e9ea_Class50 v ) ) ( type_3be299ca_2571_4fe5_8b1b_654e7067e9ea_Class41 v ) ) (< ( class14_Class14IntAttr4 ( obj_5806dec9_c153_4560_8aa0_275d869421cf v )  )  7))):named l0))
(assert (! (exists ((o Int)) ( type_3be299ca_2571_4fe5_8b1b_654e7067e9ea_Class0 ( obj_5806dec9_c153_4560_8aa0_275d869421cf o )  ) ):named c0))
(assert (! (exists ((o Int)) (and (and (and (and (and ( type_3be299ca_2571_4fe5_8b1b_654e7067e9ea_Class1 ( obj_5806dec9_c153_4560_8aa0_275d869421cf o )  )  ( type_3be299ca_2571_4fe5_8b1b_654e7067e9ea_Class45 ( obj_5806dec9_c153_4560_8aa0_275d869421cf o )  ) ) ( type_3be299ca_2571_4fe5_8b1b_654e7067e9ea_Class12 ( obj_5806dec9_c153_4560_8aa0_275d869421cf o )  ) ) ( type_3be299ca_2571_4fe5_8b1b_654e7067e9ea_Class33 ( obj_5806dec9_c153_4560_8aa0_275d869421cf o )  ) ) ( type_3be299ca_2571_4fe5_8b1b_654e7067e9ea_Class22 ( obj_5806dec9_c153_4560_8aa0_275d869421cf o )  ) ) ( type_3be299ca_2571_4fe5_8b1b_654e7067e9ea_Class39 ( obj_5806dec9_c153_4560_8aa0_275d869421cf o )  ) )):named c1))
(assert (! (exists ((o Int)) (and (and (and (and (and (and (and (and (and ( type_3be299ca_2571_4fe5_8b1b_654e7067e9ea_Class10 ( obj_5806dec9_c153_4560_8aa0_275d869421cf o )  )  ( type_3be299ca_2571_4fe5_8b1b_654e7067e9ea_Class45 ( obj_5806dec9_c153_4560_8aa0_275d869421cf o )  ) ) ( type_3be299ca_2571_4fe5_8b1b_654e7067e9ea_Class12 ( obj_5806dec9_c153_4560_8aa0_275d869421cf o )  ) ) ( type_3be299ca_2571_4fe5_8b1b_654e7067e9ea_Class55 ( obj_5806dec9_c153_4560_8aa0_275d869421cf o )  ) ) ( type_3be299ca_2571_4fe5_8b1b_654e7067e9ea_Class33 ( obj_5806dec9_c153_4560_8aa0_275d869421cf o )  ) ) ( type_3be299ca_2571_4fe5_8b1b_654e7067e9ea_Class22 ( obj_5806dec9_c153_4560_8aa0_275d869421cf o )  ) ) ( type_3be299ca_2571_4fe5_8b1b_654e7067e9ea_Class29 ( obj_5806dec9_c153_4560_8aa0_275d869421cf o )  ) ) ( type_3be299ca_2571_4fe5_8b1b_654e7067e9ea_Class39 ( obj_5806dec9_c153_4560_8aa0_275d869421cf o )  ) ) ( type_3be299ca_2571_4fe5_8b1b_654e7067e9ea_Class50 ( obj_5806dec9_c153_4560_8aa0_275d869421cf o )  ) ) ( type_3be299ca_2571_4fe5_8b1b_654e7067e9ea_Class41 ( obj_5806dec9_c153_4560_8aa0_275d869421cf o )  ) )):named c2))
(assert (! (exists ((o Int)) ( type_3be299ca_2571_4fe5_8b1b_654e7067e9ea_Class11 ( obj_5806dec9_c153_4560_8aa0_275d869421cf o )  ) ):named c3))
(assert (! (exists ((o Int)) (and (and (and ( type_3be299ca_2571_4fe5_8b1b_654e7067e9ea_Class12 ( obj_5806dec9_c153_4560_8aa0_275d869421cf o )  )  ( type_3be299ca_2571_4fe5_8b1b_654e7067e9ea_Class33 ( obj_5806dec9_c153_4560_8aa0_275d869421cf o )  ) ) ( type_3be299ca_2571_4fe5_8b1b_654e7067e9ea_Class22 ( obj_5806dec9_c153_4560_8aa0_275d869421cf o )  ) ) ( type_3be299ca_2571_4fe5_8b1b_654e7067e9ea_Class39 ( obj_5806dec9_c153_4560_8aa0_275d869421cf o )  ) )):named c4))
(assert (! (exists ((o Int)) (and (and (and (and (and (and (and (and (and ( type_3be299ca_2571_4fe5_8b1b_654e7067e9ea_Class13 ( obj_5806dec9_c153_4560_8aa0_275d869421cf o )  )  ( type_3be299ca_2571_4fe5_8b1b_654e7067e9ea_Class45 ( obj_5806dec9_c153_4560_8aa0_275d869421cf o )  ) ) ( type_3be299ca_2571_4fe5_8b1b_654e7067e9ea_Class12 ( obj_5806dec9_c153_4560_8aa0_275d869421cf o )  ) ) ( type_3be299ca_2571_4fe5_8b1b_654e7067e9ea_Class55 ( obj_5806dec9_c153_4560_8aa0_275d869421cf o )  ) ) ( type_3be299ca_2571_4fe5_8b1b_654e7067e9ea_Class33 ( obj_5806dec9_c153_4560_8aa0_275d869421cf o )  ) ) ( type_3be299ca_2571_4fe5_8b1b_654e7067e9ea_Class22 ( obj_5806dec9_c153_4560_8aa0_275d869421cf o )  ) ) ( type_3be299ca_2571_4fe5_8b1b_654e7067e9ea_Class29 ( obj_5806dec9_c153_4560_8aa0_275d869421cf o )  ) ) ( type_3be299ca_2571_4fe5_8b1b_654e7067e9ea_Class39 ( obj_5806dec9_c153_4560_8aa0_275d869421cf o )  ) ) ( type_3be299ca_2571_4fe5_8b1b_654e7067e9ea_Class50 ( obj_5806dec9_c153_4560_8aa0_275d869421cf o )  ) ) ( type_3be299ca_2571_4fe5_8b1b_654e7067e9ea_Class41 ( obj_5806dec9_c153_4560_8aa0_275d869421cf o )  ) )):named c5))
(assert (! (exists ((o Int)) (and (and (and (and (and (and (and (and (and ( type_3be299ca_2571_4fe5_8b1b_654e7067e9ea_Class14 ( obj_5806dec9_c153_4560_8aa0_275d869421cf o )  )  ( type_3be299ca_2571_4fe5_8b1b_654e7067e9ea_Class45 ( obj_5806dec9_c153_4560_8aa0_275d869421cf o )  ) ) ( type_3be299ca_2571_4fe5_8b1b_654e7067e9ea_Class12 ( obj_5806dec9_c153_4560_8aa0_275d869421cf o )  ) ) ( type_3be299ca_2571_4fe5_8b1b_654e7067e9ea_Class55 ( obj_5806dec9_c153_4560_8aa0_275d869421cf o )  ) ) ( type_3be299ca_2571_4fe5_8b1b_654e7067e9ea_Class33 ( obj_5806dec9_c153_4560_8aa0_275d869421cf o )  ) ) ( type_3be299ca_2571_4fe5_8b1b_654e7067e9ea_Class22 ( obj_5806dec9_c153_4560_8aa0_275d869421cf o )  ) ) ( type_3be299ca_2571_4fe5_8b1b_654e7067e9ea_Class29 ( obj_5806dec9_c153_4560_8aa0_275d869421cf o )  ) ) ( type_3be299ca_2571_4fe5_8b1b_654e7067e9ea_Class39 ( obj_5806dec9_c153_4560_8aa0_275d869421cf o )  ) ) ( type_3be299ca_2571_4fe5_8b1b_654e7067e9ea_Class50 ( obj_5806dec9_c153_4560_8aa0_275d869421cf o )  ) ) ( type_3be299ca_2571_4fe5_8b1b_654e7067e9ea_Class41 ( obj_5806dec9_c153_4560_8aa0_275d869421cf o )  ) )):named c6))
(assert (! (exists ((o Int)) ( type_3be299ca_2571_4fe5_8b1b_654e7067e9ea_Class15 ( obj_5806dec9_c153_4560_8aa0_275d869421cf o )  ) ):named c7))
(assert (! (exists ((o Int)) (and (and (and (and (and ( type_3be299ca_2571_4fe5_8b1b_654e7067e9ea_Class16 ( obj_5806dec9_c153_4560_8aa0_275d869421cf o )  )  ( type_3be299ca_2571_4fe5_8b1b_654e7067e9ea_Class45 ( obj_5806dec9_c153_4560_8aa0_275d869421cf o )  ) ) ( type_3be299ca_2571_4fe5_8b1b_654e7067e9ea_Class12 ( obj_5806dec9_c153_4560_8aa0_275d869421cf o )  ) ) ( type_3be299ca_2571_4fe5_8b1b_654e7067e9ea_Class33 ( obj_5806dec9_c153_4560_8aa0_275d869421cf o )  ) ) ( type_3be299ca_2571_4fe5_8b1b_654e7067e9ea_Class22 ( obj_5806dec9_c153_4560_8aa0_275d869421cf o )  ) ) ( type_3be299ca_2571_4fe5_8b1b_654e7067e9ea_Class39 ( obj_5806dec9_c153_4560_8aa0_275d869421cf o )  ) )):named c8))
(assert (! (exists ((o Int)) ( type_3be299ca_2571_4fe5_8b1b_654e7067e9ea_Class17 ( obj_5806dec9_c153_4560_8aa0_275d869421cf o )  ) ):named c9))
(assert (! (exists ((o Int)) (and (and (and ( type_3be299ca_2571_4fe5_8b1b_654e7067e9ea_Class18 ( obj_5806dec9_c153_4560_8aa0_275d869421cf o )  )  ( type_3be299ca_2571_4fe5_8b1b_654e7067e9ea_Class25 ( obj_5806dec9_c153_4560_8aa0_275d869421cf o )  ) ) ( type_3be299ca_2571_4fe5_8b1b_654e7067e9ea_Class24 ( obj_5806dec9_c153_4560_8aa0_275d869421cf o )  ) ) ( type_3be299ca_2571_4fe5_8b1b_654e7067e9ea_Class39 ( obj_5806dec9_c153_4560_8aa0_275d869421cf o )  ) )):named c10))
(assert (! (exists ((o Int)) (and (and (and (and (and (and (and (and (and ( type_3be299ca_2571_4fe5_8b1b_654e7067e9ea_Class19 ( obj_5806dec9_c153_4560_8aa0_275d869421cf o )  )  ( type_3be299ca_2571_4fe5_8b1b_654e7067e9ea_Class45 ( obj_5806dec9_c153_4560_8aa0_275d869421cf o )  ) ) ( type_3be299ca_2571_4fe5_8b1b_654e7067e9ea_Class12 ( obj_5806dec9_c153_4560_8aa0_275d869421cf o )  ) ) ( type_3be299ca_2571_4fe5_8b1b_654e7067e9ea_Class55 ( obj_5806dec9_c153_4560_8aa0_275d869421cf o )  ) ) ( type_3be299ca_2571_4fe5_8b1b_654e7067e9ea_Class33 ( obj_5806dec9_c153_4560_8aa0_275d869421cf o )  ) ) ( type_3be299ca_2571_4fe5_8b1b_654e7067e9ea_Class22 ( obj_5806dec9_c153_4560_8aa0_275d869421cf o )  ) ) ( type_3be299ca_2571_4fe5_8b1b_654e7067e9ea_Class29 ( obj_5806dec9_c153_4560_8aa0_275d869421cf o )  ) ) ( type_3be299ca_2571_4fe5_8b1b_654e7067e9ea_Class39 ( obj_5806dec9_c153_4560_8aa0_275d869421cf o )  ) ) ( type_3be299ca_2571_4fe5_8b1b_654e7067e9ea_Class50 ( obj_5806dec9_c153_4560_8aa0_275d869421cf o )  ) ) ( type_3be299ca_2571_4fe5_8b1b_654e7067e9ea_Class41 ( obj_5806dec9_c153_4560_8aa0_275d869421cf o )  ) )):named c11))
(assert (! (exists ((o Int)) ( type_3be299ca_2571_4fe5_8b1b_654e7067e9ea_Class2 ( obj_5806dec9_c153_4560_8aa0_275d869421cf o )  ) ):named c12))
(assert (! (exists ((o Int)) ( type_3be299ca_2571_4fe5_8b1b_654e7067e9ea_Class20 ( obj_5806dec9_c153_4560_8aa0_275d869421cf o )  ) ):named c13))
(assert (! (exists ((o Int)) (and (and (and (and (and (and (and (and (and ( type_3be299ca_2571_4fe5_8b1b_654e7067e9ea_Class21 ( obj_5806dec9_c153_4560_8aa0_275d869421cf o )  )  ( type_3be299ca_2571_4fe5_8b1b_654e7067e9ea_Class45 ( obj_5806dec9_c153_4560_8aa0_275d869421cf o )  ) ) ( type_3be299ca_2571_4fe5_8b1b_654e7067e9ea_Class12 ( obj_5806dec9_c153_4560_8aa0_275d869421cf o )  ) ) ( type_3be299ca_2571_4fe5_8b1b_654e7067e9ea_Class33 ( obj_5806dec9_c153_4560_8aa0_275d869421cf o )  ) ) ( type_3be299ca_2571_4fe5_8b1b_654e7067e9ea_Class22 ( obj_5806dec9_c153_4560_8aa0_275d869421cf o )  ) ) ( type_3be299ca_2571_4fe5_8b1b_654e7067e9ea_Class16 ( obj_5806dec9_c153_4560_8aa0_275d869421cf o )  ) ) ( type_3be299ca_2571_4fe5_8b1b_654e7067e9ea_Class29 ( obj_5806dec9_c153_4560_8aa0_275d869421cf o )  ) ) ( type_3be299ca_2571_4fe5_8b1b_654e7067e9ea_Class39 ( obj_5806dec9_c153_4560_8aa0_275d869421cf o )  ) ) ( type_3be299ca_2571_4fe5_8b1b_654e7067e9ea_Class41 ( obj_5806dec9_c153_4560_8aa0_275d869421cf o )  ) ) ( type_3be299ca_2571_4fe5_8b1b_654e7067e9ea_Class51 ( obj_5806dec9_c153_4560_8aa0_275d869421cf o )  ) )):named c14))
(assert (! (exists ((o Int)) (and ( type_3be299ca_2571_4fe5_8b1b_654e7067e9ea_Class22 ( obj_5806dec9_c153_4560_8aa0_275d869421cf o )  )  ( type_3be299ca_2571_4fe5_8b1b_654e7067e9ea_Class39 ( obj_5806dec9_c153_4560_8aa0_275d869421cf o )  ) )):named c15))
(assert (! (exists ((o Int)) (and (and (and (and ( type_3be299ca_2571_4fe5_8b1b_654e7067e9ea_Class23 ( obj_5806dec9_c153_4560_8aa0_275d869421cf o )  )  ( type_3be299ca_2571_4fe5_8b1b_654e7067e9ea_Class25 ( obj_5806dec9_c153_4560_8aa0_275d869421cf o )  ) ) ( type_3be299ca_2571_4fe5_8b1b_654e7067e9ea_Class24 ( obj_5806dec9_c153_4560_8aa0_275d869421cf o )  ) ) ( type_3be299ca_2571_4fe5_8b1b_654e7067e9ea_Class39 ( obj_5806dec9_c153_4560_8aa0_275d869421cf o )  ) ) ( type_3be299ca_2571_4fe5_8b1b_654e7067e9ea_Class5 ( obj_5806dec9_c153_4560_8aa0_275d869421cf o )  ) )):named c16))
(assert (! (exists ((o Int)) (and (and ( type_3be299ca_2571_4fe5_8b1b_654e7067e9ea_Class24 ( obj_5806dec9_c153_4560_8aa0_275d869421cf o )  )  ( type_3be299ca_2571_4fe5_8b1b_654e7067e9ea_Class25 ( obj_5806dec9_c153_4560_8aa0_275d869421cf o )  ) ) ( type_3be299ca_2571_4fe5_8b1b_654e7067e9ea_Class39 ( obj_5806dec9_c153_4560_8aa0_275d869421cf o )  ) )):named c17))
(assert (! (exists ((o Int)) (and ( type_3be299ca_2571_4fe5_8b1b_654e7067e9ea_Class25 ( obj_5806dec9_c153_4560_8aa0_275d869421cf o )  )  ( type_3be299ca_2571_4fe5_8b1b_654e7067e9ea_Class39 ( obj_5806dec9_c153_4560_8aa0_275d869421cf o )  ) )):named c18))
(assert (! (exists ((o Int)) ( type_3be299ca_2571_4fe5_8b1b_654e7067e9ea_Class26 ( obj_5806dec9_c153_4560_8aa0_275d869421cf o )  ) ):named c19))
(assert (! (exists ((o Int)) ( type_3be299ca_2571_4fe5_8b1b_654e7067e9ea_Class27 ( obj_5806dec9_c153_4560_8aa0_275d869421cf o )  ) ):named c20))
(assert (! (exists ((o Int)) (and (and (and (and (and (and (and ( type_3be299ca_2571_4fe5_8b1b_654e7067e9ea_Class28 ( obj_5806dec9_c153_4560_8aa0_275d869421cf o )  )  ( type_3be299ca_2571_4fe5_8b1b_654e7067e9ea_Class45 ( obj_5806dec9_c153_4560_8aa0_275d869421cf o )  ) ) ( type_3be299ca_2571_4fe5_8b1b_654e7067e9ea_Class12 ( obj_5806dec9_c153_4560_8aa0_275d869421cf o )  ) ) ( type_3be299ca_2571_4fe5_8b1b_654e7067e9ea_Class33 ( obj_5806dec9_c153_4560_8aa0_275d869421cf o )  ) ) ( type_3be299ca_2571_4fe5_8b1b_654e7067e9ea_Class22 ( obj_5806dec9_c153_4560_8aa0_275d869421cf o )  ) ) ( type_3be299ca_2571_4fe5_8b1b_654e7067e9ea_Class29 ( obj_5806dec9_c153_4560_8aa0_275d869421cf o )  ) ) ( type_3be299ca_2571_4fe5_8b1b_654e7067e9ea_Class39 ( obj_5806dec9_c153_4560_8aa0_275d869421cf o )  ) ) ( type_3be299ca_2571_4fe5_8b1b_654e7067e9ea_Class41 ( obj_5806dec9_c153_4560_8aa0_275d869421cf o )  ) )):named c21))
(assert (! (exists ((o Int)) (and (and (and (and (and (and ( type_3be299ca_2571_4fe5_8b1b_654e7067e9ea_Class29 ( obj_5806dec9_c153_4560_8aa0_275d869421cf o )  )  ( type_3be299ca_2571_4fe5_8b1b_654e7067e9ea_Class45 ( obj_5806dec9_c153_4560_8aa0_275d869421cf o )  ) ) ( type_3be299ca_2571_4fe5_8b1b_654e7067e9ea_Class12 ( obj_5806dec9_c153_4560_8aa0_275d869421cf o )  ) ) ( type_3be299ca_2571_4fe5_8b1b_654e7067e9ea_Class33 ( obj_5806dec9_c153_4560_8aa0_275d869421cf o )  ) ) ( type_3be299ca_2571_4fe5_8b1b_654e7067e9ea_Class22 ( obj_5806dec9_c153_4560_8aa0_275d869421cf o )  ) ) ( type_3be299ca_2571_4fe5_8b1b_654e7067e9ea_Class39 ( obj_5806dec9_c153_4560_8aa0_275d869421cf o )  ) ) ( type_3be299ca_2571_4fe5_8b1b_654e7067e9ea_Class41 ( obj_5806dec9_c153_4560_8aa0_275d869421cf o )  ) )):named c22))
(assert (! (exists ((o Int)) (and (and (and ( type_3be299ca_2571_4fe5_8b1b_654e7067e9ea_Class3 ( obj_5806dec9_c153_4560_8aa0_275d869421cf o )  )  ( type_3be299ca_2571_4fe5_8b1b_654e7067e9ea_Class25 ( obj_5806dec9_c153_4560_8aa0_275d869421cf o )  ) ) ( type_3be299ca_2571_4fe5_8b1b_654e7067e9ea_Class24 ( obj_5806dec9_c153_4560_8aa0_275d869421cf o )  ) ) ( type_3be299ca_2571_4fe5_8b1b_654e7067e9ea_Class39 ( obj_5806dec9_c153_4560_8aa0_275d869421cf o )  ) )):named c23))
(assert (! (exists ((o Int)) (and ( type_3be299ca_2571_4fe5_8b1b_654e7067e9ea_Class30 ( obj_5806dec9_c153_4560_8aa0_275d869421cf o )  )  ( type_3be299ca_2571_4fe5_8b1b_654e7067e9ea_Class39 ( obj_5806dec9_c153_4560_8aa0_275d869421cf o )  ) )):named c24))
(assert (! (exists ((o Int)) (and (and (and (and (and ( type_3be299ca_2571_4fe5_8b1b_654e7067e9ea_Class31 ( obj_5806dec9_c153_4560_8aa0_275d869421cf o )  )  ( type_3be299ca_2571_4fe5_8b1b_654e7067e9ea_Class45 ( obj_5806dec9_c153_4560_8aa0_275d869421cf o )  ) ) ( type_3be299ca_2571_4fe5_8b1b_654e7067e9ea_Class12 ( obj_5806dec9_c153_4560_8aa0_275d869421cf o )  ) ) ( type_3be299ca_2571_4fe5_8b1b_654e7067e9ea_Class33 ( obj_5806dec9_c153_4560_8aa0_275d869421cf o )  ) ) ( type_3be299ca_2571_4fe5_8b1b_654e7067e9ea_Class22 ( obj_5806dec9_c153_4560_8aa0_275d869421cf o )  ) ) ( type_3be299ca_2571_4fe5_8b1b_654e7067e9ea_Class39 ( obj_5806dec9_c153_4560_8aa0_275d869421cf o )  ) )):named c25))
(assert (! (exists ((o Int)) ( type_3be299ca_2571_4fe5_8b1b_654e7067e9ea_Class32 ( obj_5806dec9_c153_4560_8aa0_275d869421cf o )  ) ):named c26))
(assert (! (exists ((o Int)) (and (and ( type_3be299ca_2571_4fe5_8b1b_654e7067e9ea_Class33 ( obj_5806dec9_c153_4560_8aa0_275d869421cf o )  )  ( type_3be299ca_2571_4fe5_8b1b_654e7067e9ea_Class22 ( obj_5806dec9_c153_4560_8aa0_275d869421cf o )  ) ) ( type_3be299ca_2571_4fe5_8b1b_654e7067e9ea_Class39 ( obj_5806dec9_c153_4560_8aa0_275d869421cf o )  ) )):named c27))
(assert (! (exists ((o Int)) (and (and (and ( type_3be299ca_2571_4fe5_8b1b_654e7067e9ea_Class34 ( obj_5806dec9_c153_4560_8aa0_275d869421cf o )  )  ( type_3be299ca_2571_4fe5_8b1b_654e7067e9ea_Class25 ( obj_5806dec9_c153_4560_8aa0_275d869421cf o )  ) ) ( type_3be299ca_2571_4fe5_8b1b_654e7067e9ea_Class24 ( obj_5806dec9_c153_4560_8aa0_275d869421cf o )  ) ) ( type_3be299ca_2571_4fe5_8b1b_654e7067e9ea_Class39 ( obj_5806dec9_c153_4560_8aa0_275d869421cf o )  ) )):named c28))
(assert (! (exists ((o Int)) (and (and ( type_3be299ca_2571_4fe5_8b1b_654e7067e9ea_Class35 ( obj_5806dec9_c153_4560_8aa0_275d869421cf o )  )  ( type_3be299ca_2571_4fe5_8b1b_654e7067e9ea_Class39 ( obj_5806dec9_c153_4560_8aa0_275d869421cf o )  ) ) ( type_3be299ca_2571_4fe5_8b1b_654e7067e9ea_Class30 ( obj_5806dec9_c153_4560_8aa0_275d869421cf o )  ) )):named c29))
(assert (! (exists ((o Int)) ( type_3be299ca_2571_4fe5_8b1b_654e7067e9ea_Class36 ( obj_5806dec9_c153_4560_8aa0_275d869421cf o )  ) ):named c30))
(assert (! (exists ((o Int)) ( type_3be299ca_2571_4fe5_8b1b_654e7067e9ea_Class37 ( obj_5806dec9_c153_4560_8aa0_275d869421cf o )  ) ):named c31))
(assert (! (exists ((o Int)) ( type_3be299ca_2571_4fe5_8b1b_654e7067e9ea_Class38 ( obj_5806dec9_c153_4560_8aa0_275d869421cf o )  ) ):named c32))
(assert (! (exists ((o Int)) ( type_3be299ca_2571_4fe5_8b1b_654e7067e9ea_Class39 ( obj_5806dec9_c153_4560_8aa0_275d869421cf o )  ) ):named c33))
(assert (! (exists ((o Int)) ( type_3be299ca_2571_4fe5_8b1b_654e7067e9ea_Class4 ( obj_5806dec9_c153_4560_8aa0_275d869421cf o )  ) ):named c34))
(assert (! (exists ((o Int)) (and (and (and (and (and (and (and (and (and ( type_3be299ca_2571_4fe5_8b1b_654e7067e9ea_Class40 ( obj_5806dec9_c153_4560_8aa0_275d869421cf o )  )  ( type_3be299ca_2571_4fe5_8b1b_654e7067e9ea_Class45 ( obj_5806dec9_c153_4560_8aa0_275d869421cf o )  ) ) ( type_3be299ca_2571_4fe5_8b1b_654e7067e9ea_Class12 ( obj_5806dec9_c153_4560_8aa0_275d869421cf o )  ) ) ( type_3be299ca_2571_4fe5_8b1b_654e7067e9ea_Class55 ( obj_5806dec9_c153_4560_8aa0_275d869421cf o )  ) ) ( type_3be299ca_2571_4fe5_8b1b_654e7067e9ea_Class33 ( obj_5806dec9_c153_4560_8aa0_275d869421cf o )  ) ) ( type_3be299ca_2571_4fe5_8b1b_654e7067e9ea_Class22 ( obj_5806dec9_c153_4560_8aa0_275d869421cf o )  ) ) ( type_3be299ca_2571_4fe5_8b1b_654e7067e9ea_Class29 ( obj_5806dec9_c153_4560_8aa0_275d869421cf o )  ) ) ( type_3be299ca_2571_4fe5_8b1b_654e7067e9ea_Class39 ( obj_5806dec9_c153_4560_8aa0_275d869421cf o )  ) ) ( type_3be299ca_2571_4fe5_8b1b_654e7067e9ea_Class50 ( obj_5806dec9_c153_4560_8aa0_275d869421cf o )  ) ) ( type_3be299ca_2571_4fe5_8b1b_654e7067e9ea_Class41 ( obj_5806dec9_c153_4560_8aa0_275d869421cf o )  ) )):named c35))
(assert (! (exists ((o Int)) (and (and (and (and (and ( type_3be299ca_2571_4fe5_8b1b_654e7067e9ea_Class41 ( obj_5806dec9_c153_4560_8aa0_275d869421cf o )  )  ( type_3be299ca_2571_4fe5_8b1b_654e7067e9ea_Class45 ( obj_5806dec9_c153_4560_8aa0_275d869421cf o )  ) ) ( type_3be299ca_2571_4fe5_8b1b_654e7067e9ea_Class12 ( obj_5806dec9_c153_4560_8aa0_275d869421cf o )  ) ) ( type_3be299ca_2571_4fe5_8b1b_654e7067e9ea_Class33 ( obj_5806dec9_c153_4560_8aa0_275d869421cf o )  ) ) ( type_3be299ca_2571_4fe5_8b1b_654e7067e9ea_Class22 ( obj_5806dec9_c153_4560_8aa0_275d869421cf o )  ) ) ( type_3be299ca_2571_4fe5_8b1b_654e7067e9ea_Class39 ( obj_5806dec9_c153_4560_8aa0_275d869421cf o )  ) )):named c36))
(assert (! (exists ((o Int)) (and ( type_3be299ca_2571_4fe5_8b1b_654e7067e9ea_Class42 ( obj_5806dec9_c153_4560_8aa0_275d869421cf o )  )  ( type_3be299ca_2571_4fe5_8b1b_654e7067e9ea_Class39 ( obj_5806dec9_c153_4560_8aa0_275d869421cf o )  ) )):named c37))
(assert (! (exists ((o Int)) ( type_3be299ca_2571_4fe5_8b1b_654e7067e9ea_Class43 ( obj_5806dec9_c153_4560_8aa0_275d869421cf o )  ) ):named c38))
(assert (! (exists ((o Int)) (and (and (and (and (and (and (and ( type_3be299ca_2571_4fe5_8b1b_654e7067e9ea_Class44 ( obj_5806dec9_c153_4560_8aa0_275d869421cf o )  )  ( type_3be299ca_2571_4fe5_8b1b_654e7067e9ea_Class45 ( obj_5806dec9_c153_4560_8aa0_275d869421cf o )  ) ) ( type_3be299ca_2571_4fe5_8b1b_654e7067e9ea_Class12 ( obj_5806dec9_c153_4560_8aa0_275d869421cf o )  ) ) ( type_3be299ca_2571_4fe5_8b1b_654e7067e9ea_Class33 ( obj_5806dec9_c153_4560_8aa0_275d869421cf o )  ) ) ( type_3be299ca_2571_4fe5_8b1b_654e7067e9ea_Class22 ( obj_5806dec9_c153_4560_8aa0_275d869421cf o )  ) ) ( type_3be299ca_2571_4fe5_8b1b_654e7067e9ea_Class29 ( obj_5806dec9_c153_4560_8aa0_275d869421cf o )  ) ) ( type_3be299ca_2571_4fe5_8b1b_654e7067e9ea_Class39 ( obj_5806dec9_c153_4560_8aa0_275d869421cf o )  ) ) ( type_3be299ca_2571_4fe5_8b1b_654e7067e9ea_Class41 ( obj_5806dec9_c153_4560_8aa0_275d869421cf o )  ) )):named c39))
(assert (! (exists ((o Int)) (and (and (and (and ( type_3be299ca_2571_4fe5_8b1b_654e7067e9ea_Class45 ( obj_5806dec9_c153_4560_8aa0_275d869421cf o )  )  ( type_3be299ca_2571_4fe5_8b1b_654e7067e9ea_Class12 ( obj_5806dec9_c153_4560_8aa0_275d869421cf o )  ) ) ( type_3be299ca_2571_4fe5_8b1b_654e7067e9ea_Class33 ( obj_5806dec9_c153_4560_8aa0_275d869421cf o )  ) ) ( type_3be299ca_2571_4fe5_8b1b_654e7067e9ea_Class22 ( obj_5806dec9_c153_4560_8aa0_275d869421cf o )  ) ) ( type_3be299ca_2571_4fe5_8b1b_654e7067e9ea_Class39 ( obj_5806dec9_c153_4560_8aa0_275d869421cf o )  ) )):named c40))
(assert (! (exists ((o Int)) (and (and ( type_3be299ca_2571_4fe5_8b1b_654e7067e9ea_Class46 ( obj_5806dec9_c153_4560_8aa0_275d869421cf o )  )  ( type_3be299ca_2571_4fe5_8b1b_654e7067e9ea_Class39 ( obj_5806dec9_c153_4560_8aa0_275d869421cf o )  ) ) ( type_3be299ca_2571_4fe5_8b1b_654e7067e9ea_Class5 ( obj_5806dec9_c153_4560_8aa0_275d869421cf o )  ) )):named c41))
(assert (! (exists ((o Int)) ( type_3be299ca_2571_4fe5_8b1b_654e7067e9ea_Class47 ( obj_5806dec9_c153_4560_8aa0_275d869421cf o )  ) ):named c42))
(assert (! (exists ((o Int)) (and (and (and (and (and (and (and (and (and ( type_3be299ca_2571_4fe5_8b1b_654e7067e9ea_Class48 ( obj_5806dec9_c153_4560_8aa0_275d869421cf o )  )  ( type_3be299ca_2571_4fe5_8b1b_654e7067e9ea_Class45 ( obj_5806dec9_c153_4560_8aa0_275d869421cf o )  ) ) ( type_3be299ca_2571_4fe5_8b1b_654e7067e9ea_Class12 ( obj_5806dec9_c153_4560_8aa0_275d869421cf o )  ) ) ( type_3be299ca_2571_4fe5_8b1b_654e7067e9ea_Class55 ( obj_5806dec9_c153_4560_8aa0_275d869421cf o )  ) ) ( type_3be299ca_2571_4fe5_8b1b_654e7067e9ea_Class33 ( obj_5806dec9_c153_4560_8aa0_275d869421cf o )  ) ) ( type_3be299ca_2571_4fe5_8b1b_654e7067e9ea_Class22 ( obj_5806dec9_c153_4560_8aa0_275d869421cf o )  ) ) ( type_3be299ca_2571_4fe5_8b1b_654e7067e9ea_Class29 ( obj_5806dec9_c153_4560_8aa0_275d869421cf o )  ) ) ( type_3be299ca_2571_4fe5_8b1b_654e7067e9ea_Class39 ( obj_5806dec9_c153_4560_8aa0_275d869421cf o )  ) ) ( type_3be299ca_2571_4fe5_8b1b_654e7067e9ea_Class50 ( obj_5806dec9_c153_4560_8aa0_275d869421cf o )  ) ) ( type_3be299ca_2571_4fe5_8b1b_654e7067e9ea_Class41 ( obj_5806dec9_c153_4560_8aa0_275d869421cf o )  ) )):named c43))
(assert (! (exists ((o Int)) (and (and (and (and (and (and (and (and (and ( type_3be299ca_2571_4fe5_8b1b_654e7067e9ea_Class49 ( obj_5806dec9_c153_4560_8aa0_275d869421cf o )  )  ( type_3be299ca_2571_4fe5_8b1b_654e7067e9ea_Class45 ( obj_5806dec9_c153_4560_8aa0_275d869421cf o )  ) ) ( type_3be299ca_2571_4fe5_8b1b_654e7067e9ea_Class12 ( obj_5806dec9_c153_4560_8aa0_275d869421cf o )  ) ) ( type_3be299ca_2571_4fe5_8b1b_654e7067e9ea_Class55 ( obj_5806dec9_c153_4560_8aa0_275d869421cf o )  ) ) ( type_3be299ca_2571_4fe5_8b1b_654e7067e9ea_Class33 ( obj_5806dec9_c153_4560_8aa0_275d869421cf o )  ) ) ( type_3be299ca_2571_4fe5_8b1b_654e7067e9ea_Class22 ( obj_5806dec9_c153_4560_8aa0_275d869421cf o )  ) ) ( type_3be299ca_2571_4fe5_8b1b_654e7067e9ea_Class29 ( obj_5806dec9_c153_4560_8aa0_275d869421cf o )  ) ) ( type_3be299ca_2571_4fe5_8b1b_654e7067e9ea_Class39 ( obj_5806dec9_c153_4560_8aa0_275d869421cf o )  ) ) ( type_3be299ca_2571_4fe5_8b1b_654e7067e9ea_Class50 ( obj_5806dec9_c153_4560_8aa0_275d869421cf o )  ) ) ( type_3be299ca_2571_4fe5_8b1b_654e7067e9ea_Class41 ( obj_5806dec9_c153_4560_8aa0_275d869421cf o )  ) )):named c44))
(assert (! (exists ((o Int)) (and ( type_3be299ca_2571_4fe5_8b1b_654e7067e9ea_Class5 ( obj_5806dec9_c153_4560_8aa0_275d869421cf o )  )  ( type_3be299ca_2571_4fe5_8b1b_654e7067e9ea_Class39 ( obj_5806dec9_c153_4560_8aa0_275d869421cf o )  ) )):named c45))
(assert (! (exists ((o Int)) (and (and (and (and (and (and (and (and ( type_3be299ca_2571_4fe5_8b1b_654e7067e9ea_Class50 ( obj_5806dec9_c153_4560_8aa0_275d869421cf o )  )  ( type_3be299ca_2571_4fe5_8b1b_654e7067e9ea_Class45 ( obj_5806dec9_c153_4560_8aa0_275d869421cf o )  ) ) ( type_3be299ca_2571_4fe5_8b1b_654e7067e9ea_Class12 ( obj_5806dec9_c153_4560_8aa0_275d869421cf o )  ) ) ( type_3be299ca_2571_4fe5_8b1b_654e7067e9ea_Class55 ( obj_5806dec9_c153_4560_8aa0_275d869421cf o )  ) ) ( type_3be299ca_2571_4fe5_8b1b_654e7067e9ea_Class33 ( obj_5806dec9_c153_4560_8aa0_275d869421cf o )  ) ) ( type_3be299ca_2571_4fe5_8b1b_654e7067e9ea_Class22 ( obj_5806dec9_c153_4560_8aa0_275d869421cf o )  ) ) ( type_3be299ca_2571_4fe5_8b1b_654e7067e9ea_Class29 ( obj_5806dec9_c153_4560_8aa0_275d869421cf o )  ) ) ( type_3be299ca_2571_4fe5_8b1b_654e7067e9ea_Class39 ( obj_5806dec9_c153_4560_8aa0_275d869421cf o )  ) ) ( type_3be299ca_2571_4fe5_8b1b_654e7067e9ea_Class41 ( obj_5806dec9_c153_4560_8aa0_275d869421cf o )  ) )):named c46))
(assert (! (exists ((o Int)) (and (and (and (and (and (and ( type_3be299ca_2571_4fe5_8b1b_654e7067e9ea_Class51 ( obj_5806dec9_c153_4560_8aa0_275d869421cf o )  )  ( type_3be299ca_2571_4fe5_8b1b_654e7067e9ea_Class45 ( obj_5806dec9_c153_4560_8aa0_275d869421cf o )  ) ) ( type_3be299ca_2571_4fe5_8b1b_654e7067e9ea_Class12 ( obj_5806dec9_c153_4560_8aa0_275d869421cf o )  ) ) ( type_3be299ca_2571_4fe5_8b1b_654e7067e9ea_Class33 ( obj_5806dec9_c153_4560_8aa0_275d869421cf o )  ) ) ( type_3be299ca_2571_4fe5_8b1b_654e7067e9ea_Class22 ( obj_5806dec9_c153_4560_8aa0_275d869421cf o )  ) ) ( type_3be299ca_2571_4fe5_8b1b_654e7067e9ea_Class16 ( obj_5806dec9_c153_4560_8aa0_275d869421cf o )  ) ) ( type_3be299ca_2571_4fe5_8b1b_654e7067e9ea_Class39 ( obj_5806dec9_c153_4560_8aa0_275d869421cf o )  ) )):named c47))
(assert (! (exists ((o Int)) (and (and (and (and (and ( type_3be299ca_2571_4fe5_8b1b_654e7067e9ea_Class52 ( obj_5806dec9_c153_4560_8aa0_275d869421cf o )  )  ( type_3be299ca_2571_4fe5_8b1b_654e7067e9ea_Class45 ( obj_5806dec9_c153_4560_8aa0_275d869421cf o )  ) ) ( type_3be299ca_2571_4fe5_8b1b_654e7067e9ea_Class12 ( obj_5806dec9_c153_4560_8aa0_275d869421cf o )  ) ) ( type_3be299ca_2571_4fe5_8b1b_654e7067e9ea_Class33 ( obj_5806dec9_c153_4560_8aa0_275d869421cf o )  ) ) ( type_3be299ca_2571_4fe5_8b1b_654e7067e9ea_Class22 ( obj_5806dec9_c153_4560_8aa0_275d869421cf o )  ) ) ( type_3be299ca_2571_4fe5_8b1b_654e7067e9ea_Class39 ( obj_5806dec9_c153_4560_8aa0_275d869421cf o )  ) )):named c48))
(assert (! (exists ((o Int)) ( type_3be299ca_2571_4fe5_8b1b_654e7067e9ea_Class53 ( obj_5806dec9_c153_4560_8aa0_275d869421cf o )  ) ):named c49))
(assert (! (exists ((o Int)) ( type_3be299ca_2571_4fe5_8b1b_654e7067e9ea_Class54 ( obj_5806dec9_c153_4560_8aa0_275d869421cf o )  ) ):named c50))
(assert (! (exists ((o Int)) (and (and (and (and (and (and (and ( type_3be299ca_2571_4fe5_8b1b_654e7067e9ea_Class55 ( obj_5806dec9_c153_4560_8aa0_275d869421cf o )  )  ( type_3be299ca_2571_4fe5_8b1b_654e7067e9ea_Class45 ( obj_5806dec9_c153_4560_8aa0_275d869421cf o )  ) ) ( type_3be299ca_2571_4fe5_8b1b_654e7067e9ea_Class12 ( obj_5806dec9_c153_4560_8aa0_275d869421cf o )  ) ) ( type_3be299ca_2571_4fe5_8b1b_654e7067e9ea_Class33 ( obj_5806dec9_c153_4560_8aa0_275d869421cf o )  ) ) ( type_3be299ca_2571_4fe5_8b1b_654e7067e9ea_Class22 ( obj_5806dec9_c153_4560_8aa0_275d869421cf o )  ) ) ( type_3be299ca_2571_4fe5_8b1b_654e7067e9ea_Class29 ( obj_5806dec9_c153_4560_8aa0_275d869421cf o )  ) ) ( type_3be299ca_2571_4fe5_8b1b_654e7067e9ea_Class39 ( obj_5806dec9_c153_4560_8aa0_275d869421cf o )  ) ) ( type_3be299ca_2571_4fe5_8b1b_654e7067e9ea_Class41 ( obj_5806dec9_c153_4560_8aa0_275d869421cf o )  ) )):named c51))
(assert (! (exists ((o Int)) ( type_3be299ca_2571_4fe5_8b1b_654e7067e9ea_Class6 ( obj_5806dec9_c153_4560_8aa0_275d869421cf o )  ) ):named c52))
(assert (! (exists ((o Int)) (and (and (and (and (and (and (and (and (and ( type_3be299ca_2571_4fe5_8b1b_654e7067e9ea_Class7 ( obj_5806dec9_c153_4560_8aa0_275d869421cf o )  )  ( type_3be299ca_2571_4fe5_8b1b_654e7067e9ea_Class45 ( obj_5806dec9_c153_4560_8aa0_275d869421cf o )  ) ) ( type_3be299ca_2571_4fe5_8b1b_654e7067e9ea_Class12 ( obj_5806dec9_c153_4560_8aa0_275d869421cf o )  ) ) ( type_3be299ca_2571_4fe5_8b1b_654e7067e9ea_Class55 ( obj_5806dec9_c153_4560_8aa0_275d869421cf o )  ) ) ( type_3be299ca_2571_4fe5_8b1b_654e7067e9ea_Class33 ( obj_5806dec9_c153_4560_8aa0_275d869421cf o )  ) ) ( type_3be299ca_2571_4fe5_8b1b_654e7067e9ea_Class22 ( obj_5806dec9_c153_4560_8aa0_275d869421cf o )  ) ) ( type_3be299ca_2571_4fe5_8b1b_654e7067e9ea_Class29 ( obj_5806dec9_c153_4560_8aa0_275d869421cf o )  ) ) ( type_3be299ca_2571_4fe5_8b1b_654e7067e9ea_Class39 ( obj_5806dec9_c153_4560_8aa0_275d869421cf o )  ) ) ( type_3be299ca_2571_4fe5_8b1b_654e7067e9ea_Class50 ( obj_5806dec9_c153_4560_8aa0_275d869421cf o )  ) ) ( type_3be299ca_2571_4fe5_8b1b_654e7067e9ea_Class41 ( obj_5806dec9_c153_4560_8aa0_275d869421cf o )  ) )):named c53))
(assert (! (exists ((o Int)) (and ( type_3be299ca_2571_4fe5_8b1b_654e7067e9ea_Class8 ( obj_5806dec9_c153_4560_8aa0_275d869421cf o )  )  ( type_3be299ca_2571_4fe5_8b1b_654e7067e9ea_Class39 ( obj_5806dec9_c153_4560_8aa0_275d869421cf o )  ) )):named c54))
(assert (! (exists ((o Int)) ( type_3be299ca_2571_4fe5_8b1b_654e7067e9ea_Class9 ( obj_5806dec9_c153_4560_8aa0_275d869421cf o )  ) ):named c55))

 ;end of formula 